NAME : P = NP
TYPE : TSP
DIMENSION : 38
EDGE_WEIGHT_TYPE : EUC_2D
NODE_COORD_SECTION
0 467 177
1 334 32
2 289 40
3 54 502
4 5 583
5 261 407
6 164 619
7 72 98
8 104 267
9 29 23
10 780 505
11 425 658
12 127 1
13 3 385
14 361 73
15 65 60
16 284 139
17 3 851
18 354 118
19 11 172
20 319 10
21 132 279
22 363 223
23 393 130
24 183 531
25 192 114
26 117 72
27 17 85
28 539 120
29 115 134
30 55 774
31 37 81
32 520 749
33 10 363
34 653 229
35 301 73
36 24 26
37 205 834